2417
254 81
145 28
15 48
312 71
76 49
451 13
175 6
191 78
229 83
267 48
153 21
314 31
290 35
269 34
83 2
279 31
430 78
398 21
106 21
355 21
344 86
317 99
225 13
38 43
311 99
254 1
442 12
393 19
103 34
142 74
404 66
235 77
471 77
270 6
224 33
285 37
247 92
423 65
167 37
142 78
